11844
0 0 0 0 1 1 0 1 1 1 1 1 0 1 0 0 1 0 1 0 1 1 1 0 0 0 0 0 0 0
21 10 8 4 5 8 16 18 21 13 20 13 18 21 5 22 16 18 21 9 21 8 8 7 5 5 20 16 5 9 4 13 11 9 4 21 20 21 7 9 4 13 10 18 4 10 20 16 5 7 22 13 8 7 13 21 20 5 7 11 22 13 8 7 9 4 13 22 9 4 8 22 18 21 5 22 7 16 7 7 11 13 10 10 4 20 20 8 16 5 4 13 8 10 4 8 13 18 16 13 11 5 22 9 21 22 20 8 7 9 10 20 8 5 13 22 8 8 7 9 7 20 9 5 7 21 20 8 13 11 10 13 8 7 9 21 18 8 5 9 4 13 18 10 21 22 20 8 5 13